Input: ticf-14crafa.prec25.dzn
============================================================
Total Runtime: 11.4093 seconds
Input parsing: 0.0012 seconds
Constraint building: 2.3067 seconds
MaxSAT solving: 7.5661 seconds
============================================================

Total variables: 656836
Total clauses: 1177949
MaxSAT found with cost: 0
NO SOLUTION FOUND
